% File represents an instance of a Composite Structure problem to be solved by a CP framework
% Created on 2025-03-26 10:42:16.313
T = 56;
n = 36;
m = 60;
edges = [(1, 2),
(7, 8),
(13, 14),
(19, 20),
(25, 26),
(31, 32),
(3, 2),
(9, 8),
(15, 14),
(21, 20),
(27, 26),
(33, 32),
(4, 3),
(10, 9),
(16, 15),
(22, 21),
(27, 28),
(33, 34),
(5, 4),
(10, 11),
(16, 17),
(22, 23),
(29, 28),
(35, 34),
(5, 6),
(12, 11),
(18, 17),
(24, 23),
(30, 29),
(35, 36),
(7, 1),
(7, 13),
(19, 13),
(25, 19),
(31, 25),
(8, 2),
(8, 14),
(20, 14),
(26, 20),
(32, 26),
(9, 3),
(9, 15),
(21, 15),
(27, 21),
(33, 27),
(10, 4),
(10, 16),
(22, 16),
(22, 28),
(34, 28),
(5, 11),
(11, 17),
(23, 17),
(29, 23),
(35, 29),
(12, 6),
(12, 18),
(24, 18),
(30, 24),
(30, 36)];
counts = [|18, 2, 18, 6,
|18, 2, 18, 4,
|18, 2, 18, 10,
|18, 2, 18, 12,
|18, 4, 18, 16,
|18, 4, 18, 10,
|18, 4, 18, 6,
|18, 2, 18, 6,
|18, 2, 18, 12,
|18, 4, 18, 14,
|18, 2, 18, 12,
|18, 4, 18, 12,
|18, 2, 18, 6,
|16, 2, 16, 4,
|18, 2, 18, 6,
|18, 2, 18, 10,
|18, 2, 18, 8,
|18, 2, 18, 10,
|18, 4, 18, 6,
|18, 2, 18, 6,
|18, 4, 18, 8,
|18, 4, 18, 10,
|18, 4, 18, 8,
|18, 6, 18, 10,
|18, 8, 18, 8,
|18, 8, 18, 6,
|18, 8, 18, 8,
|18, 2, 18, 8,
|18, 6, 18, 8,
|18, 8, 18, 10,
|18, 12, 18, 8,
|18, 10, 18, 6,
|18, 10, 18, 8,
|18, 8, 18, 8,
|18, 10, 18, 8,
|18, 8, 18, 6|];
